WARNING: for repeatability, setting FPU to use double precision
============================[ Problem Statistics ]=============================
|                                                                             |
|  Number of variables:        215253                                         |
|  Number of clauses:          503707                                         |
|  Parse time:                   0.18 s                                       |
|                                                                             |
============================[ Search Statistics ]==============================
| Conflicts |          ORIGINAL         |          LEARNT          | Progress |
|           |    Vars  Clauses Literals |    Limit  Clauses Lit/Cl |          |
===============================================================================
|       100 |  119630   484034  1086698 |   177479      100     14 | 44.424 % |
|       250 |  119630   484034  1086698 |   195227      250     17 | 44.424 % |
|       475 |  119630   484034  1086698 |   214749      475     20 | 44.424 % |
|       812 |  119630   484034  1086698 |   236224      812     43 | 44.424 % |
|      1318 |  119630   484034  1086698 |   259847     1318     55 | 44.424 % |
|      2077 |  119630   484034  1086698 |   285831     2077     58 | 44.424 % |
===============================================================================
restarts              : 15
conflicts             : 2540           (2089 /sec)
decisions             : 37453          (0.00 % random) (30798 /sec)
propagations          : 6630345        (5452246 /sec)
conflict literals     : 144629         (4.97 % deleted)
Memory used           : 56.00 MB
CPU time              : 1.21608 s

SATISFIABLE
